% demand
num_movements = 39;
loading_factor = [1050, 1900, 2000, 1900, 1300, 1750, 950, 1550, 1450, 1150, 1000, 950, 1750, 800, 900, 850, 1750, 1000, 1000, 900, 1850, 1650, 800, 1000, 1650, 1750, 1100, 1850, 1000, 1200, 1300, 850, 1550, 800, 950, 800, 1850, 950, 1200];
pickup_time = [0, 0, 0, 0, 0, 0, 0, 1, 2, 2, 2, 2, 2, 2, 2, 2, 3, 4, 4, 4, 4, 4, 4, 4, 5, 5, 5, 5, 5, 6, 6, 6, 6, 6, 6, 6, 8, 8, 8];
delivery_time = [2, 2, 1, 2, 2, 2, 1, 2, 4, 4, 4, 4, 4, 4, 4, 4, 4, 5, 5, 5, 5, 6, 8, 8, 8, 6, 6, 6, 6, 9, 8, 9, 9, 9, 9, 9, 9, 9, 9];

% transporter definition
total_capacity = 11000;
num_decks = 4;
capacity = [3000, 3000, 1000, 4000];

% ways out of decks
num_ways_out = 2;
paths_out = array3d(decks, ways_out, decks, [
% ways out of deck d1
2, 4, 0, 0, 3, 4, 0, 0, 

% ways out of deck d2
4, 0, 0, 0, 0, 0, 0, 0,	

% ways out of deck d3
4, 0, 0, 0, 0, 0, 0, 0,	

% ways out of deck d4
0, 0, 0, 0,	0, 0, 0, 0,	

]);

